Translating instance to solver...

Set parameter TimeLimit to value 28800
Gurobi Optimizer version 11.0.2 build v11.0.2rc0 (linux64 - "Ubuntu 22.04.4 LTS")

CPU model: Intel(R) Xeon(R) Gold 5120 CPU @ 2.20GHz, instruction set [SSE2|AVX|AVX2|AVX512]
Thread count: 28 physical cores, 56 logical processors, using up to 28 threads

Academic license 2463511 - for non-commercial use only - registered to lu___@cefet-rj.br
Optimize a model with 181495 rows, 83733 columns and 404996 nonzeros
Model fingerprint: 0x945d64db
Variable types: 1 continuous, 83732 integer (83640 binary)
Coefficient statistics:
  Matrix range     [1e+00, 1e+05]
  Objective range  [3e-01, 8e-01]
  Bounds range     [1e+00, 8e+01]
  RHS range        [1e+00, 9e+01]
Presolve removed 148772 rows and 70390 columns
Presolve time: 3.28s
Presolved: 32723 rows, 13343 columns, 92847 nonzeros
Variable types: 0 continuous, 13343 integer (13252 binary)

Root relaxation: objective 1.529455e+00, 1369 iterations, 0.12 seconds (0.13 work units)

    Nodes    |    Current Node    |     Objective Bounds      |     Work
 Expl Unexpl |  Obj  Depth IntInf | Incumbent    BestBd   Gap | It/Node Time

     0     0    1.52946    0   26          -    1.52946      -     -    4s
H    0     0                       2.1412370    1.52946  28.6%     -    5s
H    0     0                       1.5294550    1.52946  0.00%     -    5s

Cutting planes:
  Learned: 1
  Implied bound: 4
  MIR: 4
  Zero half: 1
  RLT: 2
  Relax-and-lift: 1

Explored 1 nodes (4954 simplex iterations) in 6.00 seconds (5.27 work units)
Thread count was 28 (of 56 available processors)

Solution count 2: 1.52946 2.14124 

Optimal solution found (tolerance 1.00e-04)
Best objective 1.529455000000e+00, best bound 1.529455000000e+00, gap 0.0000%

Solver Wallclock Time (for this epsilon): 6.011262893676758 s
Python wallclock Time (for this epsilon): 19.610893487930298 s


Total Elapsed Time (since program call): 4121.302583694458 s

Results:

I = 1.529455 mA
C = 22.0 points
C ~= 8.8 km^2

Minimum Epsilon for this instance = 10
Maximum Epsilon for this instance = 100

Current Epsilon = 20


Preprocessing Time (for this epsilon): 0.0164182186126709 s


Updated solution vectors:
sol_I = [-1.529455,-1.529455]
sol_C = [17.0,22.0]
sol_eps = [10,20]
sol_gap = [0.0,0.0]
